qe/outputs/qe/qe_queries_cbrdelay/T=5,eliminate=[I_0,I_1,I_2,I_3,I_4,L_1,L_2,L_3,L_4,B].smt2
; benchmark generated from python API
(set-info :status unknown)
(declare-fun S_1 () Real)
(declare-fun A_1 () Real)
(declare-fun L_0 () Real)
(declare-fun S_4 () Real)
(declare-fun C () Real)
(declare-fun S_2 () Real)
(declare-fun S_0 () Real)
(declare-fun A_0 () Real)
(declare-fun S_3 () Real)
(declare-fun A_4 () Real)
(declare-fun A_3 () Real)
(declare-fun A_2 () Real)
(assert
 (let (($x34 (>= L_0 0.0)))
 (let (($x431 (>= C 5.0)))
 (let (($x10189 (<= (+ (* (- 1.0) C) (* (- 1.0) A_1) A_3 (* (- 1.0) S_4) S_2) (- 5.0))))
 (let (($x9288 (<= (+ C (* (- 1.0) S_4) S_2) 0.0)))
 (let (($x895 (<= (+ A_3 (* (- 1.0) L_0) (* (- 1.0) S_4)) 0.0)))
 (let (($x14609 (or $x895 $x9288 (<= (+ (* (- 1.0) A_2) A_3 (* (- 1.0) S_4) S_2) (- 5.0)) $x10189)))
 (let (($x298 (<= (+ (* (- 1.0) C) A_2 (* (- 1.0) A_1)) 0.0)))
 (let (($x9320 (not $x298)))
 (let (($x9090 (<= (+ (* 3.0 C) (* (- 1.0) S_4) S_0) 0.0)))
 (let (($x302 (<= (+ (* (- 1.0) C) (* (- 1.0) A_2) A_3) 0.0)))
 (let (($x274 (not $x302)))
 (let (($x14542 (or $x274 $x895 $x9090 $x9320 (<= (+ C A_3 (* (- 1.0) A_1) (* (- 1.0) S_4) S_0) (- 5.0)))))
 (let (($x9191 (<= (+ (* 2.0 C) (* (- 1.0) S_4) S_1) 0.0)))
 (let (($x10172 (or $x274 $x895 $x9191 (<= (+ C (* (- 1.0) A_2) A_3 (* (- 1.0) S_4) S_1) (- 5.0)) (<= (+ (* (- 1.0) A_1) A_3 (* (- 1.0) S_4) S_1) (- 5.0)))))
 (let (($x14242 (or $x9288 (<= (+ (* (- 1.0) A_2) A_3 (* (- 1.0) S_4) S_2) 0.0))))
 (let (($x9620 (<= (+ (* 2.0 C) (* (- 1.0) A_2) A_3 (* (- 1.0) S_4) S_0) (- 5.0))))
 (let ((?x367 (* (- 1.0) S_4)))
 (let ((?x516 (* (- 1.0) L_0)))
 (let ((?x355 (* (- 1.0) A_2)))
 (let (($x8730 (<= (+ (* 2.0 C) A_1 ?x516 ?x367) 0.0)))
 (let (($x14476 (or $x298 $x895 $x8730 $x9090 (<= (+ C A_3 ?x355 A_1 ?x516 ?x367) (- 5.0)) $x9620)))
 (let (($x9867 (<= (+ (* (- 1.0) C) (* (- 1.0) A_3) A_2 S_4 (* (- 1.0) S_3)) 0.0)))
 (let (($x8792 (<= (+ (* 2.0 C) (* (- 1.0) S_3) S_0) 0.0)))
 (let (($x6867 (<= (+ A_2 (* (- 1.0) A_4) S_4 (* (- 1.0) S_3)) 0.0)))
 (let ((?x6343 (* (- 2.0) S_3)))
 (let ((?x359 (* (- 1.0) A_1)))
 (let ((?x347 (* (- 1.0) A_4)))
 (let (($x797 (<= (+ A_2 ?x516 (* (- 1.0) S_3)) 0.0)))
 (let (($x14271 (or $x797 (<= (+ A_2 A_3 ?x347 ?x359 S_4 ?x6343 S_0) 0.0) $x8792 $x9320)))
 (let (($x9894 (or $x9320 $x797 $x8792 (<= (+ C A_2 ?x359 (* (- 1.0) S_3) S_0) (- 5.0)))))
 (let (($x9424 (<= 0.0 (+ (* (- 1.0) C) ?x355 L_0 S_4))))
 (let (($x9854 (or $x302 $x8730 $x9090 (<= (+ (* 2.0 C) A_2 ?x359 ?x367 S_0) (- 5.0)) $x9424)))
 (let (($x9748 (<= (+ (* (- 1.0) C) A_2 A_3 ?x347 ?x359 S_4 ?x6343 S_1) 0.0)))
 (let (($x8611 (<= (+ C (* (- 1.0) S_3) S_1) 0.0)))
 (let (($x7509 (or (<= (+ ?x516 A_1 (* (- 1.0) S_2)) 0.0) (<= (+ C (* (- 1.0) S_2) S_0) 0.0))))
 (let (($x96 (>= S_1 S_0)))
 (let (($x99 (>= S_2 S_1)))
 (let (($x102 (>= S_3 S_2)))
 (let (($x105 (>= S_4 S_3)))
 (let (($x107 (>= A_1 A_0)))
 (let (($x108 (>= A_2 A_1)))
 (let (($x109 (>= A_3 A_2)))
 (let (($x110 (>= A_4 A_3)))
 (and $x110 $x109 $x108 $x107 $x105 $x102 $x99 $x96 (or $x298 (<= (+ C A_1 ?x516 (* (- 1.0) S_3)) 0.0) $x8792) (<= (+ (* (- 3.0) C) ?x359 L_0 S_4) 0.0) $x7509 (<= (+ (* (- 1.0) C) ?x359 L_0 S_2) 0.0) (or $x302 $x9191 (<= (+ C A_2 ?x359 ?x367 S_1) (- 5.0)) $x9424) (or $x302 $x9288) (<= (+ (* (- 2.0) C) ?x355 L_0 S_4) 0.0) (<= (+ (* (- 1.0) C) ?x355 L_0 S_3) 0.0) (<= (+ (* (- 3.0) C) S_3 (* (- 1.0) S_1)) 0.0) (<= (+ (* (- 2.0) C) ?x359 L_0 S_3) 0.0) (<= (+ (* (- 1.0) C) (* (- 1.0) A_3) L_0 S_4) 0.0) (<= (+ ?x355 L_0 S_2) 0.0) (or $x797 $x8611 (<= (+ A_2 ?x359 (* (- 1.0) S_3) S_1) (- 5.0))) (or $x797 $x8611 $x9748) (or $x6867 $x8611) $x9854 (or $x8611 $x9867) $x9894 $x14271 (or $x6867 $x8792 $x9320) (or $x8792 $x9320 $x9867) $x14476 $x14242 $x10172 $x14542 $x14609 $x431 $x34 (<= (+ L_0 (* (- 1.0) A_0) S_0) 0.0) (<= (+ (* (- 1.0) A_3) L_0 S_3) 0.0) (<= (+ (* (- 3.0) C) S_4 (* (- 1.0) S_2)) 0.0) (<= (+ (* (- 4.0) C) L_0 (* (- 1.0) A_0) S_4) 0.0) (<= (+ (* (- 5.0) C) S_4 (* (- 1.0) S_0)) 0.0) (<= (+ (* (- 2.0) C) S_4 (* (- 1.0) S_3)) 0.0) (<= (+ ?x347 L_0 S_4) 0.0) (<= (+ (* (- 2.0) C) S_3 (* (- 1.0) S_2)) 0.0) (<= (+ (* (- 3.0) C) L_0 (* (- 1.0) A_0) S_3) 0.0) (<= (+ (* (- 4.0) C) S_3 (* (- 1.0) S_0)) 0.0) (<= (+ (* (- 1.0) C) L_0 (* (- 1.0) A_0) S_1) 0.0) (<= (+ (* (- 2.0) C) S_1 (* (- 1.0) S_0)) 0.0) (<= (+ (* (- 2.0) C) L_0 (* (- 1.0) A_0) S_2) 0.0) (<= (+ (* (- 3.0) C) S_2 (* (- 1.0) S_0)) 0.0) (<= (+ (* (- 2.0) C) S_2 (* (- 1.0) S_1)) 0.0) (<= (+ (* (- 4.0) C) S_4 (* (- 1.0) S_1)) 0.0) (<= (+ L_0 ?x359 S_1) 0.0))))))))))))))))))))))))))))))))))))))))))))))
(check-sat)
